MACHINES = {m1,m2,m3,m4,m5,m6,m7,m8,m9};
no_stages = 3;
stage_machines = [{m1,m2,m3},
                  {m4,m5,m6},
                  {m7,m8,m9}
                 ];
%% array1d is needed to avoid enum error.
unit_speed_factor = array1d(MACHINES,[1,3,2,
                                      4,5,4,
                                      3,4,2]);


no_orders = 3;         
order_size = [4,6,3];
deadline = [10,30,15];

no_excludes = 3;
excludes = [|m1,m5| m2, m6|m4,m8|];